嘉会湖->十里河
weekday
5 30 38 47 56
6 04 12 20 28 36 44 50 56
7 02 08 14 20 26 32 38 44 50 56
8 02 08 14 20 26 32 38 44 52
9 00 08 16 24 32 40 48 56
10 04 12 20 28 36 44 52
11 00 08 16 24 32 40 48 56
12 04 12 20 28 36 44 52
13 00 08 16 24 32 40 48 56
14 04 12 20 28 36 44 52
15 00 08 16 24 32 40 48 56
16 04 12 20 28 36 44 52
17 00 08 16 24 32 40 48 56
18 04 12 20 28 36 44 52
19 00 08 16 24 32 40 48 56
20 04 12 20 28 36 44 52
21 00 08 16 24 32 40 48 56
22 04 12 20 30

weekend
5 30 38 47 56
6 04 12 20 28 36 44 52
7 00 08 16 24 32 40 48 56
8 04 12 20 28 36 44 52
9 00 08 16 24 32 40 48 56
10 04 12 20 28 36 44 52
11 00 08 16 24 32 40 48 56
12 04 12 20 28 36 44 52
13 00 08 16 24 32 40 48 56
14 04 12 20 28 36 44 52
15 00 08 16 24 32 40 48 56
16 04 12 20 28 36 44 52
17 00 08 16 24 32 40 48 56
18 04 12 20 28 36 44 52
19 00 08 16 24 32 40 48 56
20 04 12 20 28 36 44 52
20 0 08 16 24 32 40 48 56
22 04 12 20 30


